p edge 40 120
e 1 35
e 1 39
e 1 23
e 1 16
e 1 34
e 1 13
e 2 32
e 2 38
e 2 26
e 2 14
e 2 28
e 2 30
e 3 40
e 3 33
e 3 35
e 3 27
e 3 22
e 3 15
e 4 20
e 4 29
e 4 22
e 4 15
e 4 19
e 4 21
e 5 37
e 5 30
e 5 23
e 5 32
e 5 27
e 5 29
e 6 33
e 6 8
e 6 10
e 6 12
e 6 14
e 6 34
e 7 12
e 7 30
e 7 34
e 7 36
e 7 31
e 7 24
e 8 40
e 8 26
e 8 14
e 8 34
e 8 9
e 9 12
e 9 26
e 9 23
e 9 16
e 9 25
e 10 18
e 10 20
e 10 13
e 10 24
e 10 26
e 11 16
e 11 34
e 11 40
e 11 15
e 11 24
e 11 19
e 12 15
e 12 38
e 12 22
e 13 28
e 13 39
e 13 15
e 13 40
e 14 29
e 14 40
e 14 37
e 15 30
e 16 24
e 16 33
e 16 32
e 17 21
e 17 36
e 17 31
e 17 35
e 17 28
e 17 37
e 18 28
e 18 39
e 18 32
e 18 25
e 18 36
e 19 29
e 19 31
e 19 35
e 19 25
e 20 28
e 20 21
e 20 23
e 20 25
e 21 36
e 21 40
e 21 28
e 22 25
e 22 36
e 22 31
e 23 31
e 23 30
e 24 34
e 24 33
e 25 27
e 26 32
e 26 38
e 27 33
e 27 37
e 27 29
e 29 32
e 30 39
e 31 35
e 33 36
e 35 38
e 37 39
e 37 38
e 38 39
